(set-logic HORN)
(set-info :source |
  Benchmark: ../golem/build/RealCodeNested/originalcodesceleton4.c
  Generated by Korn 0.4 https://github.com/gernst/korn
|)


(declare-fun $main_inv2 (Int Int Int Int Int Int Int Int Int Int Int Int Int Int Int) Bool)
(declare-fun $main_if5 (Int Int Int Int Int Int Int Int Int Int Int Int Int Int Int Int Int Int Int Int Int Int Int Int Int Int Int Int Int Int) Bool)
(declare-fun __assert_fail (Int Int Int Int) Bool)
(declare-fun $main_sum3 (Int Int Int Int Int Int Int Int Int Int Int Int Int Int Int) Bool)
(declare-fun $__VERIFIER_assert_pre (Int) Bool)
(declare-fun $__VERIFIER_assert_if1 (Int Int) Bool)
(declare-fun $main_if6 (Int Int Int Int Int Int Int Int Int Int Int Int Int Int Int Int Int Int Int Int Int Int Int Int Int Int Int Int Int Int) Bool)
(declare-fun $main_sum2 (Int Int Int Int Int Int Int Int Int Int Int Int Int Int Int) Bool)
(declare-fun $main_if7 (Int Int Int Int Int Int Int Int Int Int Int Int Int Int Int Int Int Int Int Int Int Int Int Int Int Int Int Int Int Int) Bool)
(declare-fun $main_sum4 (Int Int Int Int Int Int Int Int Int Int Int Int Int Int Int) Bool)
(declare-fun $main_sum1 (Int Int Int Int Int Int Int Int Int Int Int Int Int Int Int) Bool)
(declare-fun $main_if3 (Int Int Int Int Int Int Int Int Int Int Int Int Int Int Int Int Int Int Int Int Int Int Int Int Int Int Int Int Int Int) Bool)
(declare-fun $main_inv1 (Int Int Int Int Int Int Int Int Int Int Int Int Int Int Int) Bool)
(declare-fun $main_if4 (Int Int Int Int Int Int Int Int Int Int Int Int Int Int Int Int Int Int Int Int Int Int Int Int Int Int Int Int Int Int) Bool)
(declare-fun $main_inv3 (Int Int Int Int Int Int Int Int Int Int Int Int Int Int Int) Bool)
(declare-fun $main_inv4 (Int Int Int Int Int Int Int Int Int Int Int Int Int Int Int) Bool)
(declare-fun __VERIFIER_assert (Int) Bool)
(declare-fun $__assert_fail_pre (Int Int Int Int) Bool)
(declare-fun $main_if2 (Int Int Int Int Int Int Int Int Int Int Int Int Int Int Int Int Int Int Int Int Int Int Int Int Int Int Int Int Int Int) Bool)
(declare-fun $main_if8 (Int Int Int Int Int Int Int Int Int Int Int Int Int Int Int Int Int Int Int Int Int Int Int Int Int Int Int Int Int Int) Bool)
(declare-fun $main_if9 (Int Int Int Int Int Int Int Int Int Int Int Int Int Int Int Int Int Int Int Int Int Int Int Int Int Int Int Int Int Int) Bool)
(declare-fun $__VERIFIER_assert_ERROR (Int Int) Bool)

; label ERROR
(assert
  (forall ((cond!1 Int))
    (=> (and (not (not (= cond!1 0)))
             ($__VERIFIER_assert_pre cond!1))
        ($__VERIFIER_assert_ERROR cond!1 cond!1))))

; error
(assert
  (forall ((cond!1 Int) (cond!2 Int))
    (=> (and ($__VERIFIER_assert_ERROR cond!1 cond!2))
        false)))

; if else
(assert
  (forall ((cond!1 Int))
    (=> (and (not (not (not (= cond!1 0))))
             ($__VERIFIER_assert_pre cond!1))
        ($__VERIFIER_assert_if1 cond!1 cond!1))))

; post __VERIFIER_assert
(assert
  (forall ((cond!1 Int) (cond!3 Int))
    (=> (and ($__VERIFIER_assert_if1 cond!1 cond!3))
        (__VERIFIER_assert cond!1))))

; loop entry $main_inv1 (line 21)
(assert
  (forall ((l!11 Int) (j!15 Int) (res!16 Int) (reachableResult3!18 Int) (preSize!8 Int) (var!13 Int) (reachableResult!17 Int) (transitions!4 Int) (subPath!9 Int) (loopTransitions!5 Int) (loopSize!6 Int) (i!10 Int) (edgeVars!7 Int) (coreVars!14 Int) (reachedRefined!12 Int))
    (=> (and (= j!15 0)
             (= coreVars!14 0)
             (= var!13 0)
             (= reachedRefined!12 0)
             (= l!11 0)
             (= i!10 0)
             (= subPath!9 0)
             (<= 5 loopSize!6)
             (<= loopSize!6 10)
             (<= 5 loopTransitions!5)
             (<= loopTransitions!5 100)
             (<= 2 transitions!4)
             (<= transitions!4 100)
             (<= 5 edgeVars!7)
             (<= edgeVars!7 10000))
        ($main_inv1 transitions!4 loopTransitions!5 loopSize!6 edgeVars!7 preSize!8 subPath!9 i!10 l!11 reachedRefined!12 var!13 coreVars!14 j!15 res!16 reachableResult!17 reachableResult3!18))))

; loop term $main_sum1 (line 21)
(assert
  (forall ((res!31 Int) (reachableResult3!33 Int) (loopSize!21 Int) (var!28 Int) (transitions!19 Int) (preSize!23 Int) (reachableResult!32 Int) (j!30 Int) (coreVars!29 Int) (subPath!24 Int) (i!25 Int) (loopTransitions!20 Int) (reachedRefined!27 Int) (edgeVars!22 Int) (l!26 Int))
    (=> (and (not (< i!25 transitions!19))
             ($main_inv1 transitions!19 loopTransitions!20 loopSize!21 edgeVars!22 preSize!23 subPath!24 i!25 l!26 reachedRefined!27 var!28 coreVars!29 j!30 res!31 reachableResult!32 reachableResult3!33))
        ($main_sum1 transitions!19 loopTransitions!20 loopSize!21 edgeVars!22 preSize!23 subPath!24 i!25 l!26 reachedRefined!27 var!28 coreVars!29 j!30 res!31 reachableResult!32 reachableResult3!33))))

; loop entry $main_inv2 (line 23)
(assert
  (forall ((res!31 Int) (reachableResult3!33 Int) (loopSize!21 Int) (var!28 Int) (transitions!19 Int) (preSize!23 Int) (reachableResult!32 Int) (j!30 Int) (coreVars!29 Int) (subPath!24 Int) (i!25 Int) (loopTransitions!20 Int) (reachedRefined!27 Int) (edgeVars!22 Int) (l!26 Int))
    (=> (and (< i!25 transitions!19)
             ($main_inv1 transitions!19 loopTransitions!20 loopSize!21 edgeVars!22 preSize!23 subPath!24 i!25 l!26 reachedRefined!27 var!28 coreVars!29 j!30 res!31 reachableResult!32 reachableResult3!33))
        ($main_inv2 transitions!19 loopTransitions!20 loopSize!21 edgeVars!22 subPath!24 subPath!24 i!25 l!26 reachedRefined!27 var!28 coreVars!29 j!30 res!31 reachableResult!32 reachableResult3!33))))

; loop term $main_sum2 (line 23)
(assert
  (forall ((coreVars!44 Int) (edgeVars!37 Int) (transitions!34 Int) (res!46 Int) (loopSize!36 Int) (reachedRefined!42 Int) (i!40 Int) (subPath!39 Int) (reachableResult3!48 Int) (var!43 Int) (preSize!38 Int) (loopTransitions!35 Int) (reachableResult!47 Int) (j!45 Int) (l!41 Int))
    (=> (and (not (< var!43 edgeVars!37))
             ($main_inv2 transitions!34 loopTransitions!35 loopSize!36 edgeVars!37 preSize!38 subPath!39 i!40 l!41 reachedRefined!42 var!43 coreVars!44 j!45 res!46 reachableResult!47 reachableResult3!48))
        ($main_sum2 transitions!34 loopTransitions!35 loopSize!36 edgeVars!37 preSize!38 subPath!39 i!40 l!41 reachedRefined!42 var!43 coreVars!44 j!45 res!46 reachableResult!47 reachableResult3!48))))

; forwards $main_inv2 (line 23)
(assert
  (forall ((coreVars!44 Int) (edgeVars!37 Int) (transitions!34 Int) (res!46 Int) (loopSize!36 Int) (reachedRefined!42 Int) (i!40 Int) (subPath!39 Int) (reachableResult3!48 Int) (var!43 Int) (preSize!38 Int) (loopTransitions!35 Int) (reachableResult!47 Int) (j!45 Int) (l!41 Int))
    (=> (and (< var!43 edgeVars!37)
             ($main_inv2 transitions!34 loopTransitions!35 loopSize!36 edgeVars!37 preSize!38 subPath!39 i!40 l!41 reachedRefined!42 var!43 coreVars!44 j!45 res!46 reachableResult!47 reachableResult3!48))
        ($main_inv2 transitions!34 loopTransitions!35 loopSize!36 edgeVars!37 preSize!38 subPath!39 i!40 l!41 reachedRefined!42 (+ var!43 1) (+ coreVars!44 2) j!45 res!46 reachableResult!47 reachableResult3!48))))

; loop entry $main_inv3 (line 28)
(assert
  (forall ((transitions!49 Int) (preSize!53 Int) (l!56 Int) (reachableResult3!63 Int) (i!55 Int) (edgeVars!52 Int) (loopSize!51 Int) (reachedRefined!57 Int) (coreVars!59 Int) (reachableResult!62 Int) (loopTransitions!50 Int) (var!58 Int) (res!61 Int) (j!60 Int) (subPath!54 Int))
    (=> (and ($main_sum2 transitions!49 loopTransitions!50 loopSize!51 edgeVars!52 preSize!53 subPath!54 i!55 l!56 reachedRefined!57 var!58 coreVars!59 j!60 res!61 reachableResult!62 reachableResult3!63))
        ($main_inv3 transitions!49 loopTransitions!50 loopSize!51 edgeVars!52 preSize!53 subPath!54 i!55 l!56 reachedRefined!57 var!58 coreVars!59 j!60 res!61 reachableResult!62 reachableResult3!63))))

; loop term $main_sum3 (line 28)
(assert
  (forall ((res!76 Int) (j!75 Int) (var!73 Int) (loopTransitions!65 Int) (l!71 Int) (coreVars!74 Int) (transitions!64 Int) (reachableResult!77 Int) (reachableResult3!78 Int) (loopSize!66 Int) (subPath!69 Int) (edgeVars!67 Int) (i!70 Int) (preSize!68 Int) (reachedRefined!72 Int))
    (=> (and (not (< j!75 loopTransitions!65))
             ($main_inv3 transitions!64 loopTransitions!65 loopSize!66 edgeVars!67 preSize!68 subPath!69 i!70 l!71 reachedRefined!72 var!73 coreVars!74 j!75 res!76 reachableResult!77 reachableResult3!78))
        ($main_sum3 transitions!64 loopTransitions!65 loopSize!66 edgeVars!67 preSize!68 subPath!69 i!70 l!71 reachedRefined!72 var!73 coreVars!74 j!75 res!76 reachableResult!77 reachableResult3!78))))

; loop entry $main_inv4 (line 32)
(assert
  (forall ((res!76 Int) (j!75 Int) (var!73 Int) (loopTransitions!65 Int) (l!71 Int) (coreVars!74 Int) (transitions!64 Int) (reachableResult!77 Int) (reachableResult3!78 Int) (loopSize!66 Int) (subPath!69 Int) (edgeVars!67 Int) (i!70 Int) (preSize!68 Int) (reachedRefined!72 Int))
    (=> (and (> res!76 0)
             (<= 0 res!76)
             (<= res!76 1)
             (< j!75 loopTransitions!65)
             ($main_inv3 transitions!64 loopTransitions!65 loopSize!66 edgeVars!67 preSize!68 subPath!69 i!70 l!71 reachedRefined!72 var!73 coreVars!74 j!75 res!76 reachableResult!77 reachableResult3!78))
        ($main_inv4 transitions!64 loopTransitions!65 loopSize!66 edgeVars!67 preSize!68 subPath!69 i!70 l!71 reachedRefined!72 var!73 coreVars!74 j!75 res!76 reachableResult!77 reachableResult3!78))))

; loop term $main_sum4 (line 32)
(assert
  (forall ((edgeVars!82 Int) (loopTransitions!80 Int) (coreVars!89 Int) (transitions!79 Int) (res!91 Int) (reachableResult!92 Int) (i!85 Int) (l!86 Int) (var!88 Int) (subPath!84 Int) (reachableResult3!93 Int) (preSize!83 Int) (loopSize!81 Int) (reachedRefined!87 Int) (j!90 Int))
    (=> (and (not (< l!86 (* loopSize!81 2)))
             ($main_inv4 transitions!79 loopTransitions!80 loopSize!81 edgeVars!82 preSize!83 subPath!84 i!85 l!86 reachedRefined!87 var!88 coreVars!89 j!90 res!91 reachableResult!92 reachableResult3!93))
        ($main_sum4 transitions!79 loopTransitions!80 loopSize!81 edgeVars!82 preSize!83 subPath!84 i!85 l!86 reachedRefined!87 var!88 coreVars!89 j!90 res!91 reachableResult!92 reachableResult3!93))))

; ite left
(assert
  (forall ((edgeVars!82 Int) (loopTransitions!80 Int) (coreVars!89 Int) (transitions!79 Int) (res!91 Int) (reachableResult!92 Int) (i!85 Int) (l!86 Int) (var!88 Int) (subPath!84 Int) (reachableResult3!93 Int) (preSize!83 Int) (loopSize!81 Int) (reachedRefined!87 Int) (j!90 Int))
    (=> (and (not (= subPath!84 0))
             (< l!86 (* loopSize!81 2))
             ($main_inv4 transitions!79 loopTransitions!80 loopSize!81 edgeVars!82 preSize!83 subPath!84 i!85 l!86 reachedRefined!87 var!88 coreVars!89 j!90 res!91 reachableResult!92 reachableResult3!93))
        ($main_if2 transitions!79 loopTransitions!80 loopSize!81 edgeVars!82 preSize!83 subPath!84 i!85 l!86 reachedRefined!87 var!88 coreVars!89 j!90 res!91 reachableResult!92 reachableResult3!93 transitions!79 loopTransitions!80 loopSize!81 edgeVars!82 preSize!83 subPath!84 i!85 l!86 reachedRefined!87 var!88 coreVars!89 j!90 res!91 reachableResult!92 reachableResult3!93))))

; ite right
(assert
  (forall ((edgeVars!82 Int) (loopTransitions!80 Int) (coreVars!89 Int) (transitions!79 Int) (res!91 Int) (reachableResult!92 Int) (i!85 Int) (l!86 Int) (var!88 Int) (subPath!84 Int) (reachableResult3!93 Int) (preSize!83 Int) (loopSize!81 Int) (reachedRefined!87 Int) (j!90 Int))
    (=> (and (not (not (= subPath!84 0)))
             (< l!86 (* loopSize!81 2))
             ($main_inv4 transitions!79 loopTransitions!80 loopSize!81 edgeVars!82 preSize!83 subPath!84 i!85 l!86 reachedRefined!87 var!88 coreVars!89 j!90 res!91 reachableResult!92 reachableResult3!93))
        ($main_if2 transitions!79 loopTransitions!80 loopSize!81 edgeVars!82 preSize!83 subPath!84 i!85 l!86 reachedRefined!87 var!88 coreVars!89 j!90 res!91 reachableResult!92 reachableResult3!93 transitions!79 loopTransitions!80 loopSize!81 edgeVars!82 preSize!83 subPath!84 i!85 l!86 reachedRefined!87 var!88 coreVars!89 j!90 res!91 reachableResult!92 reachableResult3!93))))

; break $main_sum4
(assert
  (forall ((edgeVars!82 Int) (coreVars!89 Int) (transitions!79 Int) (preSize!98 Int) (res!91 Int) (edgeVars!97 Int) (l!101 Int) (var!88 Int) (subPath!84 Int) (reachableResult3!93 Int) (reachableResult!107 Int) (var!103 Int) (coreVars!104 Int) (loopTransitions!80 Int) (preSize!83 Int) (loopSize!81 Int) (reachedRefined!87 Int) (j!90 Int) (loopTransitions!95 Int) (res!106 Int) (i!100 Int) (reachableResult!92 Int) (j!105 Int) (transitions!94 Int) (i!85 Int) (loopSize!96 Int) (subPath!99 Int) (reachableResult3!108 Int) (l!86 Int) (reachedRefined!102 Int))
    (=> (and (= l!101 0)
             (not (> reachableResult!107 0))
             (= (mod l!101 2) 0)
             (or (= reachableResult3!108 1) (= reachableResult3!108 0))
             (or (= reachableResult!107 1) (= reachableResult!107 0))
             ($main_if2 transitions!79 loopTransitions!80 loopSize!81 edgeVars!82 preSize!83 subPath!84 i!85 l!86 reachedRefined!87 var!88 coreVars!89 j!90 res!91 reachableResult!92 reachableResult3!93 transitions!94 loopTransitions!95 loopSize!96 edgeVars!97 preSize!98 subPath!99 i!100 l!101 reachedRefined!102 var!103 coreVars!104 j!105 res!106 reachableResult!107 reachableResult3!108))
        ($main_sum4 transitions!94 loopTransitions!95 loopSize!96 edgeVars!97 preSize!98 subPath!99 i!100 l!101 (ite (not (= subPath!84 0)) (+ reachedRefined!87 subPath!84) reachedRefined!87) var!103 coreVars!104 j!105 res!106 reachableResult!107 reachableResult3!108))))

; if else
(assert
  (forall ((edgeVars!82 Int) (coreVars!89 Int) (transitions!79 Int) (preSize!98 Int) (res!91 Int) (edgeVars!97 Int) (l!101 Int) (var!88 Int) (subPath!84 Int) (reachableResult3!93 Int) (reachableResult!107 Int) (var!103 Int) (coreVars!104 Int) (loopTransitions!80 Int) (preSize!83 Int) (loopSize!81 Int) (reachedRefined!87 Int) (j!90 Int) (loopTransitions!95 Int) (res!106 Int) (i!100 Int) (reachableResult!92 Int) (j!105 Int) (transitions!94 Int) (i!85 Int) (loopSize!96 Int) (subPath!99 Int) (reachableResult3!108 Int) (l!86 Int) (reachedRefined!102 Int))
    (=> (and (not (= l!101 0))
             (not (> reachableResult!107 0))
             (= (mod l!101 2) 0)
             (or (= reachableResult3!108 1) (= reachableResult3!108 0))
             (or (= reachableResult!107 1) (= reachableResult!107 0))
             ($main_if2 transitions!79 loopTransitions!80 loopSize!81 edgeVars!82 preSize!83 subPath!84 i!85 l!86 reachedRefined!87 var!88 coreVars!89 j!90 res!91 reachableResult!92 reachableResult3!93 transitions!94 loopTransitions!95 loopSize!96 edgeVars!97 preSize!98 subPath!99 i!100 l!101 reachedRefined!102 var!103 coreVars!104 j!105 res!106 reachableResult!107 reachableResult3!108))
        ($main_if3 transitions!79 loopTransitions!80 loopSize!81 edgeVars!82 preSize!83 subPath!84 i!85 l!86 reachedRefined!87 var!88 coreVars!89 j!90 res!91 reachableResult!92 reachableResult3!93 transitions!94 loopTransitions!95 loopSize!96 edgeVars!97 preSize!98 subPath!99 i!100 l!101 (ite (not (= subPath!84 0)) (+ reachedRefined!87 subPath!84) reachedRefined!87) var!103 coreVars!104 j!105 res!106 reachableResult!107 reachableResult3!108))))

; if then
(assert
  (forall ((edgeVars!82 Int) (coreVars!89 Int) (transitions!79 Int) (preSize!98 Int) (res!91 Int) (edgeVars!97 Int) (l!101 Int) (var!88 Int) (subPath!84 Int) (reachableResult3!93 Int) (reachableResult!107 Int) (var!103 Int) (coreVars!104 Int) (loopTransitions!80 Int) (preSize!83 Int) (loopSize!81 Int) (reachedRefined!87 Int) (j!90 Int) (loopTransitions!95 Int) (res!106 Int) (i!100 Int) (reachableResult!92 Int) (j!105 Int) (transitions!94 Int) (i!85 Int) (loopSize!96 Int) (subPath!99 Int) (reachableResult3!108 Int) (l!86 Int) (reachedRefined!102 Int))
    (=> (and (> reachableResult!107 0)
             (= (mod l!101 2) 0)
             (or (= reachableResult3!108 1) (= reachableResult3!108 0))
             (or (= reachableResult!107 1) (= reachableResult!107 0))
             ($main_if2 transitions!79 loopTransitions!80 loopSize!81 edgeVars!82 preSize!83 subPath!84 i!85 l!86 reachedRefined!87 var!88 coreVars!89 j!90 res!91 reachableResult!92 reachableResult3!93 transitions!94 loopTransitions!95 loopSize!96 edgeVars!97 preSize!98 subPath!99 i!100 l!101 reachedRefined!102 var!103 coreVars!104 j!105 res!106 reachableResult!107 reachableResult3!108))
        ($main_if4 transitions!79 loopTransitions!80 loopSize!81 edgeVars!82 preSize!83 subPath!84 i!85 l!86 reachedRefined!87 var!88 coreVars!89 j!90 res!91 reachableResult!92 reachableResult3!93 transitions!94 loopTransitions!95 loopSize!96 edgeVars!97 preSize!98 (+ subPath!99 1) i!100 (+ l!101 1) (ite (not (= subPath!84 0)) (+ reachedRefined!87 subPath!84) reachedRefined!87) var!103 coreVars!104 j!105 res!106 reachableResult!107 reachableResult3!108))))

; if else
(assert
  (forall ((i!115 Int) (edgeVars!82 Int) (coreVars!89 Int) (res!121 Int) (transitions!79 Int) (subPath!114 Int) (res!91 Int) (edgeVars!112 Int) (l!86 Int) (preSize!113 Int) (var!88 Int) (subPath!84 Int) (reachableResult3!93 Int) (l!116 Int) (coreVars!119 Int) (loopTransitions!110 Int) (loopTransitions!80 Int) (reachableResult!122 Int) (reachedRefined!117 Int) (preSize!83 Int) (loopSize!81 Int) (transitions!109 Int) (reachedRefined!87 Int) (j!90 Int) (reachableResult!92 Int) (loopSize!111 Int) (reachableResult3!123 Int) (i!85 Int) (var!118 Int) (j!120 Int))
    (=> (and ($main_if3 transitions!79 loopTransitions!80 loopSize!81 edgeVars!82 preSize!83 subPath!84 i!85 l!86 reachedRefined!87 var!88 coreVars!89 j!90 res!91 reachableResult!92 reachableResult3!93 transitions!109 loopTransitions!110 loopSize!111 edgeVars!112 preSize!113 subPath!114 i!115 l!116 reachedRefined!117 var!118 coreVars!119 j!120 res!121 reachableResult!122 reachableResult3!123))
        ($main_if4 transitions!79 loopTransitions!80 loopSize!81 edgeVars!82 preSize!83 subPath!84 i!85 l!86 reachedRefined!87 var!88 coreVars!89 j!90 res!91 reachableResult!92 reachableResult3!93 transitions!109 loopTransitions!110 loopSize!111 edgeVars!112 preSize!113 (- subPath!114 1) i!115 (- l!116 1) reachedRefined!117 var!118 coreVars!119 j!120 res!121 reachableResult!122 reachableResult3!123))))

; if then
(assert
  (forall ((edgeVars!82 Int) (coreVars!89 Int) (transitions!79 Int) (preSize!98 Int) (res!91 Int) (edgeVars!97 Int) (l!101 Int) (var!88 Int) (subPath!84 Int) (reachableResult3!93 Int) (reachableResult!107 Int) (var!103 Int) (coreVars!104 Int) (loopTransitions!80 Int) (preSize!83 Int) (loopSize!81 Int) (reachedRefined!87 Int) (j!90 Int) (loopTransitions!95 Int) (res!106 Int) (i!100 Int) (reachableResult!92 Int) (j!105 Int) (transitions!94 Int) (i!85 Int) (loopSize!96 Int) (subPath!99 Int) (reachableResult3!108 Int) (l!86 Int) (reachedRefined!102 Int))
    (=> (and (> reachableResult3!108 0)
             (not (= (mod l!101 2) 0))
             (or (= reachableResult3!108 1) (= reachableResult3!108 0))
             (or (= reachableResult!107 1) (= reachableResult!107 0))
             ($main_if2 transitions!79 loopTransitions!80 loopSize!81 edgeVars!82 preSize!83 subPath!84 i!85 l!86 reachedRefined!87 var!88 coreVars!89 j!90 res!91 reachableResult!92 reachableResult3!93 transitions!94 loopTransitions!95 loopSize!96 edgeVars!97 preSize!98 subPath!99 i!100 l!101 reachedRefined!102 var!103 coreVars!104 j!105 res!106 reachableResult!107 reachableResult3!108))
        ($main_if5 transitions!79 loopTransitions!80 loopSize!81 edgeVars!82 preSize!83 subPath!84 i!85 l!86 reachedRefined!87 var!88 coreVars!89 j!90 res!91 reachableResult!92 reachableResult3!93 transitions!94 loopTransitions!95 loopSize!96 edgeVars!97 preSize!98 (+ subPath!99 1) i!100 (+ l!101 1) (ite (not (= subPath!84 0)) (+ reachedRefined!87 subPath!84) reachedRefined!87) var!103 coreVars!104 j!105 res!106 reachableResult!107 reachableResult3!108))))

; if else
(assert
  (forall ((edgeVars!82 Int) (coreVars!89 Int) (transitions!79 Int) (preSize!98 Int) (res!91 Int) (edgeVars!97 Int) (l!101 Int) (var!88 Int) (subPath!84 Int) (reachableResult3!93 Int) (reachableResult!107 Int) (var!103 Int) (coreVars!104 Int) (loopTransitions!80 Int) (preSize!83 Int) (loopSize!81 Int) (reachedRefined!87 Int) (j!90 Int) (loopTransitions!95 Int) (res!106 Int) (i!100 Int) (reachableResult!92 Int) (j!105 Int) (transitions!94 Int) (i!85 Int) (loopSize!96 Int) (subPath!99 Int) (reachableResult3!108 Int) (l!86 Int) (reachedRefined!102 Int))
    (=> (and (not (> reachableResult3!108 0))
             (not (= (mod l!101 2) 0))
             (or (= reachableResult3!108 1) (= reachableResult3!108 0))
             (or (= reachableResult!107 1) (= reachableResult!107 0))
             ($main_if2 transitions!79 loopTransitions!80 loopSize!81 edgeVars!82 preSize!83 subPath!84 i!85 l!86 reachedRefined!87 var!88 coreVars!89 j!90 res!91 reachableResult!92 reachableResult3!93 transitions!94 loopTransitions!95 loopSize!96 edgeVars!97 preSize!98 subPath!99 i!100 l!101 reachedRefined!102 var!103 coreVars!104 j!105 res!106 reachableResult!107 reachableResult3!108))
        ($main_if5 transitions!79 loopTransitions!80 loopSize!81 edgeVars!82 preSize!83 subPath!84 i!85 l!86 reachedRefined!87 var!88 coreVars!89 j!90 res!91 reachableResult!92 reachableResult3!93 transitions!94 loopTransitions!95 loopSize!96 edgeVars!97 preSize!98 (- subPath!99 1) i!100 (- l!101 1) (ite (not (= subPath!84 0)) (+ reachedRefined!87 subPath!84) reachedRefined!87) var!103 coreVars!104 j!105 res!106 reachableResult!107 reachableResult3!108))))

; if then
(assert
  (forall ((loopTransitions!80 Int) (coreVars!89 Int) (reachableResult3!138 Int) (res!91 Int) (reachableResult!137 Int) (reachableResult!92 Int) (coreVars!134 Int) (l!86 Int) (transitions!124 Int) (subPath!84 Int) (i!130 Int) (reachableResult3!93 Int) (loopSize!126 Int) (edgeVars!82 Int) (preSize!83 Int) (loopSize!81 Int) (reachedRefined!132 Int) (preSize!128 Int) (subPath!129 Int) (transitions!79 Int) (reachedRefined!87 Int) (j!90 Int) (loopTransitions!125 Int) (j!135 Int) (var!133 Int) (i!85 Int) (l!131 Int) (res!136 Int) (edgeVars!127 Int) (var!88 Int))
    (=> (and ($main_if4 transitions!79 loopTransitions!80 loopSize!81 edgeVars!82 preSize!83 subPath!84 i!85 l!86 reachedRefined!87 var!88 coreVars!89 j!90 res!91 reachableResult!92 reachableResult3!93 transitions!124 loopTransitions!125 loopSize!126 edgeVars!127 preSize!128 subPath!129 i!130 l!131 reachedRefined!132 var!133 coreVars!134 j!135 res!136 reachableResult!137 reachableResult3!138))
        ($main_if6 transitions!79 loopTransitions!80 loopSize!81 edgeVars!82 preSize!83 subPath!84 i!85 l!86 reachedRefined!87 var!88 coreVars!89 j!90 res!91 reachableResult!92 reachableResult3!93 transitions!124 loopTransitions!125 loopSize!126 edgeVars!127 preSize!128 subPath!129 i!130 l!131 reachedRefined!132 var!133 coreVars!134 j!135 res!136 reachableResult!137 reachableResult3!138))))

; if else
(assert
  (forall ((i!145 Int) (res!151 Int) (edgeVars!82 Int) (loopTransitions!80 Int) (transitions!139 Int) (reachableResult3!153 Int) (res!91 Int) (loopTransitions!140 Int) (reachableResult!152 Int) (reachableResult!92 Int) (l!86 Int) (subPath!84 Int) (reachableResult3!93 Int) (edgeVars!142 Int) (preSize!83 Int) (loopSize!81 Int) (preSize!143 Int) (coreVars!89 Int) (var!148 Int) (transitions!79 Int) (reachedRefined!87 Int) (j!90 Int) (i!85 Int) (coreVars!149 Int) (reachedRefined!147 Int) (subPath!144 Int) (j!150 Int) (loopSize!141 Int) (l!146 Int) (var!88 Int))
    (=> (and ($main_if5 transitions!79 loopTransitions!80 loopSize!81 edgeVars!82 preSize!83 subPath!84 i!85 l!86 reachedRefined!87 var!88 coreVars!89 j!90 res!91 reachableResult!92 reachableResult3!93 transitions!139 loopTransitions!140 loopSize!141 edgeVars!142 preSize!143 subPath!144 i!145 l!146 reachedRefined!147 var!148 coreVars!149 j!150 res!151 reachableResult!152 reachableResult3!153))
        ($main_if6 transitions!79 loopTransitions!80 loopSize!81 edgeVars!82 preSize!83 subPath!84 i!85 l!86 reachedRefined!87 var!88 coreVars!89 j!90 res!91 reachableResult!92 reachableResult3!93 transitions!139 loopTransitions!140 loopSize!141 edgeVars!142 preSize!143 subPath!144 i!145 l!146 reachedRefined!147 var!148 coreVars!149 j!150 res!151 reachableResult!152 reachableResult3!153))))

; forwards $main_inv4 (line 32)
(assert
  (forall ((edgeVars!82 Int) (res!166 Int) (coreVars!89 Int) (edgeVars!157 Int) (res!91 Int) (preSize!158 Int) (reachableResult!92 Int) (coreVars!164 Int) (i!85 Int) (l!86 Int) (loopTransitions!155 Int) (var!88 Int) (subPath!84 Int) (reachableResult3!93 Int) (reachedRefined!162 Int) (var!163 Int) (j!165 Int) (transitions!154 Int) (loopTransitions!80 Int) (preSize!83 Int) (l!161 Int) (reachableResult3!168 Int) (loopSize!156 Int) (i!160 Int) (loopSize!81 Int) (subPath!159 Int) (transitions!79 Int) (reachableResult!167 Int) (reachedRefined!87 Int) (j!90 Int))
    (=> (and ($main_if6 transitions!79 loopTransitions!80 loopSize!81 edgeVars!82 preSize!83 subPath!84 i!85 l!86 reachedRefined!87 var!88 coreVars!89 j!90 res!91 reachableResult!92 reachableResult3!93 transitions!154 loopTransitions!155 loopSize!156 edgeVars!157 preSize!158 subPath!159 i!160 l!161 reachedRefined!162 var!163 coreVars!164 j!165 res!166 reachableResult!167 reachableResult3!168))
        ($main_inv4 transitions!154 loopTransitions!155 loopSize!156 edgeVars!157 preSize!158 subPath!159 i!160 l!161 reachedRefined!162 var!163 coreVars!164 j!165 res!166 reachableResult!167 reachableResult3!168))))

; break $main_sum3
(assert
  (forall ((preSize!173 Int) (loopSize!171 Int) (transitions!169 Int) (i!175 Int) (reachableResult3!183 Int) (res!181 Int) (reachedRefined!177 Int) (edgeVars!172 Int) (var!178 Int) (loopTransitions!170 Int) (reachableResult!182 Int) (subPath!174 Int) (coreVars!179 Int) (j!180 Int) (l!176 Int))
    (=> (and (> subPath!174 preSize!173)
             ($main_sum4 transitions!169 loopTransitions!170 loopSize!171 edgeVars!172 preSize!173 subPath!174 i!175 l!176 reachedRefined!177 var!178 coreVars!179 j!180 res!181 reachableResult!182 reachableResult3!183))
        ($main_sum3 transitions!169 loopTransitions!170 loopSize!171 edgeVars!172 preSize!173 subPath!174 i!175 l!176 subPath!174 var!178 coreVars!179 j!180 res!181 reachableResult!182 reachableResult3!183))))

; if else
(assert
  (forall ((res!76 Int) (preSize!173 Int) (j!75 Int) (loopSize!171 Int) (i!175 Int) (reachableResult3!183 Int) (loopTransitions!65 Int) (res!181 Int) (l!71 Int) (reachedRefined!177 Int) (coreVars!74 Int) (var!178 Int) (loopTransitions!170 Int) (transitions!64 Int) (reachableResult!182 Int) (subPath!174 Int) (transitions!169 Int) (var!73 Int) (j!180 Int) (reachableResult3!78 Int) (loopSize!66 Int) (subPath!69 Int) (l!176 Int) (edgeVars!67 Int) (i!70 Int) (reachedRefined!72 Int) (preSize!68 Int) (edgeVars!172 Int) (reachableResult!77 Int) (coreVars!179 Int))
    (=> (and (not (> subPath!174 preSize!173))
             ($main_sum4 transitions!169 loopTransitions!170 loopSize!171 edgeVars!172 preSize!173 subPath!174 i!175 l!176 reachedRefined!177 var!178 coreVars!179 j!180 res!181 reachableResult!182 reachableResult3!183))
        ($main_if7 transitions!64 loopTransitions!65 loopSize!66 edgeVars!67 preSize!68 subPath!69 i!70 l!71 reachedRefined!72 var!73 coreVars!74 j!75 res!76 reachableResult!77 reachableResult3!78 transitions!169 loopTransitions!170 loopSize!171 edgeVars!172 preSize!173 subPath!174 i!175 l!176 reachedRefined!177 var!178 coreVars!179 j!180 res!181 reachableResult!182 reachableResult3!183))))

; if then
(assert
  (forall ((res!76 Int) (coreVars!194 Int) (var!73 Int) (subPath!189 Int) (l!191 Int) (var!193 Int) (loopTransitions!65 Int) (reachedRefined!192 Int) (l!71 Int) (coreVars!74 Int) (i!190 Int) (reachableResult!77 Int) (loopSize!186 Int) (j!75 Int) (reachableResult!197 Int) (reachableResult3!198 Int) (reachableResult3!78 Int) (loopSize!66 Int) (subPath!69 Int) (edgeVars!67 Int) (i!70 Int) (transitions!184 Int) (j!195 Int) (res!196 Int) (preSize!68 Int) (reachedRefined!72 Int) (edgeVars!187 Int) (preSize!188 Int) (transitions!64 Int) (loopTransitions!185 Int))
    (=> (and ($main_if7 transitions!64 loopTransitions!65 loopSize!66 edgeVars!67 preSize!68 subPath!69 i!70 l!71 reachedRefined!72 var!73 coreVars!74 j!75 res!76 reachableResult!77 reachableResult3!78 transitions!184 loopTransitions!185 loopSize!186 edgeVars!187 preSize!188 subPath!189 i!190 l!191 reachedRefined!192 var!193 coreVars!194 j!195 res!196 reachableResult!197 reachableResult3!198))
        ($main_if8 transitions!64 loopTransitions!65 loopSize!66 edgeVars!67 preSize!68 subPath!69 i!70 l!71 reachedRefined!72 var!73 coreVars!74 j!75 res!76 reachableResult!77 reachableResult3!78 transitions!184 loopTransitions!185 loopSize!186 edgeVars!187 preSize!188 subPath!189 i!190 0 reachedRefined!192 var!193 coreVars!194 j!195 res!196 reachableResult!197 reachableResult3!198))))

; if else
(assert
  (forall ((res!76 Int) (j!75 Int) (var!73 Int) (loopTransitions!65 Int) (l!71 Int) (coreVars!74 Int) (transitions!64 Int) (reachableResult!77 Int) (reachableResult3!78 Int) (loopSize!66 Int) (subPath!69 Int) (edgeVars!67 Int) (i!70 Int) (preSize!68 Int) (reachedRefined!72 Int))
    (=> (and (not (> res!76 0))
             (<= 0 res!76)
             (<= res!76 1)
             (< j!75 loopTransitions!65)
             ($main_inv3 transitions!64 loopTransitions!65 loopSize!66 edgeVars!67 preSize!68 subPath!69 i!70 l!71 reachedRefined!72 var!73 coreVars!74 j!75 res!76 reachableResult!77 reachableResult3!78))
        ($main_if8 transitions!64 loopTransitions!65 loopSize!66 edgeVars!67 preSize!68 subPath!69 i!70 l!71 reachedRefined!72 var!73 coreVars!74 j!75 res!76 reachableResult!77 reachableResult3!78 transitions!64 loopTransitions!65 loopSize!66 edgeVars!67 preSize!68 subPath!69 i!70 l!71 reachedRefined!72 var!73 coreVars!74 j!75 res!76 reachableResult!77 reachableResult3!78))))

; forwards $main_inv3 (line 28)
(assert
  (forall ((res!76 Int) (reachableResult!212 Int) (var!73 Int) (subPath!204 Int) (loopTransitions!200 Int) (l!206 Int) (coreVars!74 Int) (transitions!64 Int) (j!210 Int) (reachableResult3!213 Int) (var!208 Int) (j!75 Int) (reachableResult3!78 Int) (loopSize!66 Int) (subPath!69 Int) (edgeVars!67 Int) (i!70 Int) (coreVars!209 Int) (res!211 Int) (loopTransitions!65 Int) (reachedRefined!207 Int) (l!71 Int) (preSize!68 Int) (reachedRefined!72 Int) (edgeVars!202 Int) (transitions!199 Int) (loopSize!201 Int) (i!205 Int) (reachableResult!77 Int) (preSize!203 Int))
    (=> (and ($main_if8 transitions!64 loopTransitions!65 loopSize!66 edgeVars!67 preSize!68 subPath!69 i!70 l!71 reachedRefined!72 var!73 coreVars!74 j!75 res!76 reachableResult!77 reachableResult3!78 transitions!199 loopTransitions!200 loopSize!201 edgeVars!202 preSize!203 subPath!204 i!205 l!206 reachedRefined!207 var!208 coreVars!209 j!210 res!211 reachableResult!212 reachableResult3!213))
        ($main_inv3 transitions!199 loopTransitions!200 loopSize!201 edgeVars!202 preSize!203 subPath!204 i!205 l!206 reachedRefined!207 var!208 coreVars!209 (+ j!210 1) res!211 reachableResult!212 reachableResult3!213))))

; if else
(assert
  (forall ((res!31 Int) (reachableResult3!33 Int) (loopSize!21 Int) (var!28 Int) (transitions!19 Int) (preSize!23 Int) (res!226 Int) (edgeVars!217 Int) (j!30 Int) (coreVars!29 Int) (preSize!218 Int) (i!25 Int) (i!220 Int) (loopTransitions!215 Int) (reachedRefined!27 Int) (reachableResult3!228 Int) (reachedRefined!222 Int) (edgeVars!22 Int) (l!26 Int) (reachableResult!227 Int) (coreVars!224 Int) (subPath!219 Int) (reachableResult!32 Int) (l!221 Int) (loopSize!216 Int) (j!225 Int) (subPath!24 Int) (transitions!214 Int) (var!223 Int) (loopTransitions!20 Int))
    (=> (and (not (= subPath!219 preSize!218))
             ($main_sum3 transitions!214 loopTransitions!215 loopSize!216 edgeVars!217 preSize!218 subPath!219 i!220 l!221 reachedRefined!222 var!223 coreVars!224 j!225 res!226 reachableResult!227 reachableResult3!228))
        ($main_if9 transitions!19 loopTransitions!20 loopSize!21 edgeVars!22 preSize!23 subPath!24 i!25 l!26 reachedRefined!27 var!28 coreVars!29 j!30 res!31 reachableResult!32 reachableResult3!33 transitions!214 loopTransitions!215 loopSize!216 edgeVars!217 preSize!218 subPath!219 i!220 l!221 reachedRefined!222 var!223 coreVars!224 j!225 res!226 reachableResult!227 reachableResult3!228))))

; forwards $main_inv1 (line 21)
(assert
  (forall ((reachableResult3!33 Int) (loopSize!21 Int) (transitions!19 Int) (preSize!23 Int) (i!235 Int) (res!241 Int) (reachableResult3!243 Int) (var!238 Int) (loopSize!231 Int) (subPath!234 Int) (coreVars!239 Int) (j!30 Int) (coreVars!29 Int) (subPath!24 Int) (i!25 Int) (reachedRefined!237 Int) (transitions!229 Int) (res!31 Int) (loopTransitions!230 Int) (var!28 Int) (edgeVars!22 Int) (l!26 Int) (preSize!233 Int) (reachableResult!32 Int) (l!236 Int) (j!240 Int) (loopTransitions!20 Int) (reachableResult!242 Int) (reachedRefined!27 Int) (edgeVars!232 Int))
    (=> (and ($main_if9 transitions!19 loopTransitions!20 loopSize!21 edgeVars!22 preSize!23 subPath!24 i!25 l!26 reachedRefined!27 var!28 coreVars!29 j!30 res!31 reachableResult!32 reachableResult3!33 transitions!229 loopTransitions!230 loopSize!231 edgeVars!232 preSize!233 subPath!234 i!235 l!236 reachedRefined!237 var!238 coreVars!239 j!240 res!241 reachableResult!242 reachableResult3!243))
        ($main_inv1 transitions!229 loopTransitions!230 loopSize!231 edgeVars!232 preSize!233 subPath!234 (+ i!235 1) l!236 reachedRefined!237 var!238 coreVars!239 0 res!241 reachableResult!242 reachableResult3!243))))

; VERIFIER_assert (< subPath!249 reachedRefined!252)
(assert
  (forall ((j!255 Int) (loopTransitions!245 Int) (coreVars!254 Int) (transitions!244 Int) (reachableResult!257 Int) (reachableResult3!258 Int) (var!253 Int) (preSize!248 Int) (loopSize!246 Int) (subPath!249 Int) (edgeVars!247 Int) (reachedRefined!252 Int) (l!251 Int) (i!250 Int) (res!256 Int))
    (=> (and (not (< subPath!249 reachedRefined!252))
             ($main_sum1 transitions!244 loopTransitions!245 loopSize!246 edgeVars!247 preSize!248 subPath!249 i!250 l!251 reachedRefined!252 var!253 coreVars!254 j!255 res!256 reachableResult!257 reachableResult3!258))
        false)))

(check-sat)
